JulietBench/Juliet_Based_Patch_Bench/linux/CWE-189-Numeric-Errors/CVE_2008_3272_82e68f7ffec3800425f2391c8c86277606860442/Resultsnd_seq_oss_synth_make_info_Snippet_patch2EQ.smt2
; benchmark generated from python API
(set-info :status unknown)
(declare-fun R () (_ BitVec 32))
(declare-fun rdi () (_ BitVec 64))
(assert
 (let (($x22 (= (_ bv0 32) R)))
 (let ((?x6 ((_ extract 31 0) rdi)))
 (let (($x13 (= R ?x6)))
 (and $x13 $x22)))))
(check-sat)
